Li3 Ni3 O6
1.0
4.328513 2.490187 -0.010689
-0.015565 5.007331 -0.000177
-0.006529 -1.669281 4.725611
Li Ni O
1 3 6
direct
0.000000 0.999995 0.999986 Li
0.000000 0.500001 0.500004 Ni
0.666667 0.166668 0.500004 Ni
0.333333 0.833335 0.500004 Ni
0.332765 0.573543 0.719759 O
0.999432 0.240209 0.719759 O
0.666098 0.906876 0.719759 O
0.667235 0.426461 0.280251 O
0.333901 0.093127 0.280251 O
0.000568 0.759794 0.280251 O